/*********************************************
 * OPL 22.1.1.0 Data
 * Author: katoe
 * Creation Date: 23 mars 2026 at 15:54:34
 *********************************************/
 

nbJobs = 3;
NbMachines =3;

p = [
  [3, 2, 1], 
  [1, 4, 2], 
  [2, 1, 5]  
];

// Tableau des échéances d[job]
d = [6, 8, 5];